122 169 57 5 33 135 107 112 180 156 68 191 81 90 179 27 42 114 187 190 75 6 39 120 119 79 103 96 124 162 19 12 34 151 182 133 145 60 32 41 168 53 15 163 28 48 47 160 102 38 164 134 37 8 24 137 40 193 45 17 54 31 171 51 30 149 143 108 61 141 184 165 166 74 82 3 70 131 140 177 52 194 69 105 93 14 25 161 130 86 132 148 20 173 83 109 99 84 63 21 65 115 178 18 189 94 58 36 44 128 176 136 183 198 55 98 192 67 188 89 23 111 29 144 113 64 80 126 76 56 158 167 9 125 142 101 138 72 159 117 155 146 110 59 88 49 104 129 139 100 123 35 118 199 43 50 87 26 197 22 95 127 62 170 7 181 16 1 73 85 153 10 97 185 186 116 92 157 195 46 71 150 147 121 91 66 172 11 196 175 154 174 106 152 77 2 78 13 4 0 

